TYPE : TSP
DIMENSION : 10
EDGE_WEIGHT_TYPE : EXPLICIT
EDGE_WEIGHT_FORMAT : FULL_MATRIX
EDGE_WEIGHT_SECTION
0 9170 9209 9581 8119 1610 8614 9291 11651 11924 
9170 0 4245 2012 2592 7617 1585 4996 3349 3304 
9209 4245 0 6246 6362 8055 5579 8984 7366 7137 
9581 2012 6246 0 1569 7972 1044 3182 2072 2375 
8119 2592 6362 1569 0 6511 1032 2633 3575 3932 
1610 7617 8055 7972 6511 0 7010 7771 10042 10319 
8614 1585 5579 1044 1032 7010 0 3453 3079 3311 
9291 4996 8984 3182 2633 7771 3453 0 4152 4711 
11651 3349 7366 2072 3575 10042 3079 4152 0 580 
11924 3304 7137 2375 3932 10319 3311 4711 580 0 
EOF
